p cnf 13 22
-13 -11 7 0
-13 8 6 0
13 -7 5 0
-13 7 3 0
12 -11 6 0
-12 11 2 0
12 10 6 0
12 -10 3 0
-12 8 -3 0
-12 -7 -3 0
-11 10 -7 0
-10 9 -6 0
-10 8 7 0
-10 -7 4 0
10 6 -5 0
-10 3 2 0
-9 8 6 0
-9 6 3 0
-9 5 2 0
8 -4 -1 0
7 6 1 0
-5 -4 3 0
